DATASET = "thpack4";
INSTANCE = "058";

WIDTH = 233;
HEIGHT = 220;
LENGTH = 587;

NO_OF_SHAPES = 10;
size = [|
  105,81,46 |
  115,81,61 |
  72,51,23 |
  65,56,33 |
  60,44,21 |
  85,69,65 |
  90,82,35 |
  115,94,64 |
  80,53,33 |
  95,81,37 |
|];

verticality = [|
  0,1,1 |
  1,1,1 |
  0,0,1 |
  1,1,1 |
  0,0,1 |
  1,1,1 |
  0,0,1 |
  1,1,1 |
  0,1,1 |
  0,0,1 |
|];

box_count = [
  18,
  9,
  12,
  10,
  13,
  7,
  10,
  8,
  9,
  10,
];
